(set-logic QF_S)
(declare-fun var0 () String)
(declare-fun var1 () Int)
(declare-fun var2 () Int)
(declare-fun var3 () String)
(declare-fun var4 () Int)
(declare-fun var5 () Int)
(declare-fun var6 () String)
(declare-fun var7 () String)
(assert (str.suffixof (str.substr var0 var1 var2) (str.substr var3 var4 var5)))
(assert (> (str.to.int var6) (str.len var7)))
(assert (< (str.indexof var7 var7 var5) (str.to.int var6)))
(assert (>= var2 var1))
(check-sat)